
Gurobi 12.0.2 (win64, gurobi_cl) logging started Fri Jul 18 12:39:12 2025

Set parameter LogFile to value "gurobi.log"

Gurobi 12.0.2 (win64, gurobi_cl) logging started Fri Jul 18 12:48:19 2025

Set parameter LogFile to value "gurobi.log"

Gurobi 12.0.2 (win64, gurobi_cl) logging started Fri Jul 18 12:51:55 2025

Set parameter LogFile to value "gurobi.log"

Gurobi 12.0.2 (win64, gurobi_cl) logging started Fri Jul 18 12:55:22 2025

Set parameter LogFile to value "gurobi.log"
